language ESSENCE' 1.0

letting setA_Occurrence be
        [false, false, true, true, true, true, false, false, true, true, false, false, false, false, true, true;
             int(1..16)]
letting setB_Occurrence be
        [true, true, false, false, false, false, true, true, false, false, true, true, true, true, false, false;
             int(1..16)]
